letting n_nurses=25
letting n_days=7
letting n_shift_types=4
letting max_covers=14
letting t_covers=61
letting covers=[1,0,0,0,13,2,0,0,3,14,0,0,2,0,10,0,13,2,1,0,0,0,0,0,0,0,0,0]
letting prefes=[2,3,2,1,3,4,3,4,3,4,3,4,2,3,2,1,2,3,2,1,3,4,3,4,2,3,2,1,1,1,1,1,3,1,3,4,3,1,3,4,1,1,1,1,1,1,1,1,3,1,3,4,1,1,1,1,2,1,2,1,3,4,1,4,3,4,1,4,2,1,2,1,2,1,2,1,3,4,1,4,2,1,2,1,1,3,1,1,1,4,3,4,1,4,3,4,1,3,1,1,1,3,1,1,1,4,3,4,1,3,1,1,1,3,1,1,3,4,3,4,3,4,3,4,1,3,1,1,1,3,1,1,3,4,3,4,1,3,1,1,2,3,1,1,3,4,3,1,3,4,3,1,2,3,1,1,2,3,1,1,3,4,3,1,2,3,1,1,2,3,1,1,3,4,3,4,3,4,3,4,2,3,1,1,2,3,1,1,3,4,3,4,2,3,1,1,2,3,1,1,3,4,3,1,3,4,3,1,2,3,1,1,2,3,1,1,3,4,3,1,2,3,1,1,2,3,1,3,3,4,3,1,3,4,3,1,2,3,1,3,2,3,1,3,3,4,3,1,2,3,1,3,2,3,1,1,3,4,3,4,3,4,3,4,2,3,1,1,2,3,1,1,3,4,3,4,2,3,1,1,2,3,1,1,3,4,3,4,3,4,3,4,2,3,1,1,2,3,1,1,3,4,3,4,2,3,1,1,2,1,1,1,3,4,3,4,3,4,3,4,2,1,1,1,2,1,1,1,3,4,3,4,2,1,1,1,2,3,2,3,1,4,3,4,1,4,3,4,2,3,2,3,2,3,2,3,1,4,3,4,2,3,2,3,2,3,1,1,3,1,3,4,3,1,3,4,2,3,1,1,2,3,1,1,3,1,3,4,2,3,1,1,2,1,1,1,3,4,3,4,3,4,3,4,2,1,1,1,2,1,1,1,3,4,3,4,2,1,1,1,2,3,2,3,1,1,1,4,1,1,1,4,2,3,2,3,2,3,2,3,1,1,1,4,2,3,2,3,2,3,2,1,3,4,3,4,3,4,3,4,2,3,2,1,2,3,2,1,3,4,3,4,2,3,2,1,2,3,1,1,3,1,3,4,3,1,3,4,2,3,1,1,2,3,1,1,3,1,3,4,2,3,1,1,2,3,1,3,3,4,3,1,3,4,3,1,2,3,1,3,2,3,1,3,3,4,3,1,2,3,1,3,2,1,1,1,3,4,1,4,3,4,1,4,2,1,1,1,2,1,1,1,3,4,1,4,2,1,1,1,2,3,1,1,3,4,1,1,3,4,1,1,2,3,1,1,2,3,1,1,3,4,1,1,2,3,1,1,2,3,1,3,3,4,3,4,3,4,3,4,2,3,1,3,2,3,1,3,3,4,3,4,2,3,1,3,2,3,1,1,3,4,3,4,3,4,3,4,2,3,1,1,2,3,1,1,3,4,3,4,2,3,1,1,1,3,1,1,1,4,3,4,1,4,3,4,1,3,1,1,1,3,1,1,1,4,3,4,1,3,1,1,1,3,1,1,1,1,1,4,1,1,1,4,1,3,1,1,1,3,1,1,1,1,1,4,1,3,1,1]
letting ub =  274
